ALGO = normal
EDIFF = 1e-07
EDIFFG = -0.03
IBRION = 2
ISIF = 3
NELM = 200
NSW = 5
